1022.78,55.36,66.35
1118.81,50.61,60.66
983.71,57.56,68.99
983.9,57.55,68.98
1033.89,54.77,65.64
892.64,63.44,76.03
1016.15,55.73,66.79
911.03,62.16,74.49
1095.92,51.67,61.93
1078.42,52.51,62.93
984.03,57.54,68.97
867.92,65.24,78.19
958.71,59.06,70.79
1111.06,50.97,61.08
1067.75,53.03,63.56
936.17,60.49,72.49
971.26,58.3,69.87
977.52,57.93,69.43
953.64,59.38,71.16
1072.28,52.81,63.29
